c 57_3_checker.cnf
c
c field = 57
c formula set type = 3_checker
c
p cnf 4 54
106 
108 
110 
-104 
107 
109 
111 
-105 
106 
108 
110 
-114 
107 
109 
111 
-115 
108 
110 
114 
-106 
109 
111 
115 
-107 
108 
110 
114 
-116 
109 
111 
115 
-117 
110 
114 
116 
-108 
111 
115 
117 
-109 
110 
114 
116 
-118 
111 
115 
117 
-119 
114 
116 
118 
-110 
115 
117 
119 
-111 
22 
52 
82 
-142 
23 
53 
83 
-143 
52 
82 
142 
-22 
53 
83 
143 
-23 
52 
82 
142 
-172 
53 
83 
143 
-173 
82 
142 
172 
-52 
83 
143 
173 
-53 
82 
142 
172 
-202 
83 
143 
173 
-203 
142 
172 
202 
-82 
143 
173 
203 
-83 
142 
172 
202 
-232 
143 
173 
203 
-233 
16 
48 
80 
-144 
17 
49 
81 
-145 
48 
80 
144 
-16 
49 
81 
145 
-17 
48 
80 
144 
-176 
49 
81 
145 
-177 
80 
144 
176 
-48 
81 
145 
177 
-49 
80 
144 
176 
-208 
81 
145 
177 
-209 
144 
176 
208 
-80 
145 
177 
209 
-81 
28 
56 
84 
-140 
29 
57 
85 
-141 
56 
84 
140 
-28 
57 
85 
141 
-29 
56 
84 
140 
-168 
57 
85 
141 
-169 
84 
140 
168 
-56 
85 
141 
169 
-57 
84 
140 
168 
-196 
85 
141 
169 
-197 
140 
168 
196 
-84 
141 
169 
197 
-85 
140 
168 
196 
-224 
141 
169 
197 
-225 
